scripts/VeryGoodGateTest.cnf
c generated by FuzzSAT
p cnf 436 1343
-3 -1 0
-3 -2 0
1 2 3 0
6 -4 0
6 5 0
4 -5 -6 0
-3 -6 -7 0
3 6 -7 0
-3 6 7 0
3 -6 7 0
-9 -7 0
-9 8 0
7 -8 9 0
-4 -10 -11 0
4 10 -11 0
-4 10 11 0
4 -10 11 0
-12 -10 0
-12 -11 0
10 11 12 0
-9 12 -13 0
9 -12 -13 0
-9 -12 13 0
9 12 13 0
14 -13 0
14 6 0
13 -6 -14 0
17 15 0
17 -16 0
-15 16 -17 0
19 17 0
19 18 0
-17 -18 -19 0
20 14 0
20 19 0
-14 -19 -20 0
-6 21 -22 0
6 -21 -22 0
-6 -21 22 0
6 21 22 0
-23 20 0
-23 22 0
-20 -22 23 0
25 6 0
25 6 0
-6 -25 0
26 24 0
26 -25 0
-24 25 -26 0
28 16 0
28 -27 0
-16 27 -28 0
-28 29 -30 0
28 -29 -30 0
-28 -29 30 0
28 29 30 0
-26 -30 -31 0
26 30 -31 0
-26 30 31 0
26 -30 31 0
-33 -32 0
-33 8 0
32 -8 33 0
-34 31 0
-34 33 0
-31 -33 34 0
23 -34 -35 0
-23 34 -35 0
23 34 35 0
-23 -34 35 0
-37 36 0
-37 -32 0
-36 32 37 0
-40 -1 0
-40 -39 0
1 39 40 0
-41 38 0
-41 -40 0
-38 40 41 0
44 -43 0
44 27 0
43 -27 -44 0
46 44 0
46 -45 0
-44 45 -46 0
42 -46 -47 0
-42 46 -47 0
42 46 47 0
-42 -46 47 0
-48 -27 0
-48 45 0
27 -45 48 0
49 -12 0
49 48 0
12 -48 -49 0
-50 -47 0
-50 -49 0
47 49 50 0
-51 -41 0
-51 50 0
41 -50 51 0
-53 17 0
-53 52 0
-17 -52 53 0
-54 -53 0
-54 28 0
53 -28 54 0
55 -51 0
55 54 0
51 -54 -55 0
56 27 0
56 -22 0
-27 22 -56 0
57 -55 0
57 56 0
55 -56 -57 0
-58 -52 -59 0
58 52 -59 0
-58 52 59 0
58 -52 59 0
15 59 -60 0
-15 -59 -60 0
15 -59 60 0
-15 59 60 0
61 -45 -62 0
-61 45 -62 0
61 45 62 0
-61 -45 62 0
63 -60 0
63 62 0
60 -62 -63 0
65 64 0
65 -39 0
-64 39 -65 0
-66 38 0
-66 -65 0
-38 65 66 0
67 25 0
67 66 0
-25 -66 -67 0
-68 69 -70 0
68 -69 -70 0
-68 -69 70 0
68 69 70 0
-58 -70 -71 0
58 70 -71 0
-58 70 71 0
58 -70 71 0
72 -71 0
72 26 0
71 -26 -72 0
72 52 -73 0
-72 -52 -73 0
72 -52 73 0
-72 52 73 0
-74 73 0
-74 72 0
-73 -72 74 0
-75 28 0
-75 -61 0
-28 61 75 0
-76 -43 0
-76 75 0
43 -75 76 0
-64 -69 -78 0
64 69 -78 0
-64 69 78 0
64 -69 78 0
77 78 -79 0
-77 -78 -79 0
77 -78 79 0
-77 78 79 0
80 76 0
80 79 0
-76 -79 -80 0
-81 -80 0
-81 -31 0
80 31 81 0
-82 -74 0
-82 81 0
74 -81 82 0
-83 29 0
-83 -9 0
-29 9 83 0
85 84 0
85 5 0
-84 -5 -85 0
-86 83 0
-86 85 0
-83 -85 86 0
82 86 -87 0
-82 -86 -87 0
82 -86 87 0
-82 86 87 0
88 67 0
88 87 0
-67 -87 -88 0
-89 63 0
-89 88 0
-63 -88 89 0
57 89 -90 0
-57 -89 -90 0
57 -89 90 0
-57 89 90 0
-91 -37 0
-91 -90 0
37 90 91 0
-92 35 0
-92 -91 0
-35 91 92 0
-84 2 -93 0
84 -2 -93 0
-84 -2 93 0
84 2 93 0
94 93 0
94 32 0
-93 -32 -94 0
-61 -95 -96 0
61 95 -96 0
-61 95 96 0
61 -95 96 0
97 -94 0
97 96 0
94 -96 -97 0
4 -25 -98 0
-4 25 -98 0
4 25 98 0
-4 -25 98 0
-28 75 -99 0
28 -75 -99 0
-28 -75 99 0
28 75 99 0
100 25 0
100 -32 0
-25 32 -100 0
101 -99 0
101 100 0
99 -100 -101 0
75 -45 -102 0
-75 45 -102 0
75 45 102 0
-75 -45 102 0
103 -102 0
103 52 0
102 -52 -103 0
-104 -101 0
-104 -103 0
101 103 104 0
105 -98 0
105 -104 0
98 104 -105 0
-97 -105 -106 0
97 105 -106 0
-97 105 106 0
97 -105 106 0
107 -5 0
107 -4 0
5 4 -107 0
-93 108 0
93 108 0
-78 -45 -109 0
78 45 -109 0
-78 45 109 0
78 -45 109 0
-110 108 0
-110 -109 0
-108 109 110 0
-112 111 0
-112 95 0
-111 -95 112 0
8 112 -113 0
-8 -112 -113 0
8 -112 113 0
-8 112 113 0
114 113 0
114 82 0
-113 -82 -114 0
-27 -109 -115 0
27 109 -115 0
-27 109 115 0
27 -109 115 0
-99 115 -116 0
99 -115 -116 0
-99 -115 116 0
99 115 116 0
117 -114 0
117 116 0
114 -116 -117 0
-118 -110 0
-118 117 0
110 -117 118 0
-119 107 0
-119 -118 0
-107 118 119 0
-120 -26 0
-120 -58 0
26 58 120 0
121 120 0
121 -96 0
-120 96 -121 0
-123 121 0
-123 122 0
-121 -122 123 0
124 11 0
124 -122 0
-11 122 -124 0
124 -77 -125 0
-124 77 -125 0
124 77 125 0
-124 -77 125 0
-125 56 -126 0
125 -56 -126 0
-125 -56 126 0
125 56 126 0
-127 123 0
-127 126 0
-123 -126 127 0
119 127 -128 0
-119 -127 -128 0
119 -127 128 0
-119 127 128 0
-129 106 0
-129 128 0
-106 -128 129 0
-130 -92 0
-130 -129 0
92 129 130 0
-131 72 0
-131 79 0
-72 -79 131 0
132 131 0
132 -58 0
-131 58 -132 0
28 -65 -133 0
-28 65 -133 0
28 65 133 0
-28 -65 133 0
-134 133 0
-134 10 0
-133 -10 134 0
135 -132 0
135 134 0
132 -134 -135 0
136 -64 0
136 -42 0
64 42 -136 0
-32 137 0
32 137 0
138 -137 0
138 -59 0
137 59 -138 0
-139 -138 0
-139 -2 0
138 2 139 0
140 139 0
140 75 0
-139 -75 -140 0
-141 -136 0
-141 -140 0
136 140 141 0
-142 -108 0
-142 26 0
108 -26 142 0
-143 9 0
-143 93 0
-9 -93 143 0
144 11 0
144 22 0
-11 -22 -144 0
-145 143 0
-145 144 0
-143 -144 145 0
146 122 0
146 145 0
-122 -145 -146 0
147 -52 0
147 -146 0
52 146 -147 0
148 142 0
148 -147 0
-142 147 -148 0
-141 -148 -149 0
141 148 -149 0
-141 148 149 0
141 -148 149 0
150 -8 0
150 9 0
8 -9 -150 0
151 150 0
151 -11 0
-150 11 -151 0
151 75 -152 0
-151 -75 -152 0
151 -75 152 0
-151 75 152 0
-153 -49 0
-153 60 0
49 -60 153 0
155 73 0
155 -154 0
-73 154 -155 0
156 153 0
156 155 0
-153 -155 -156 0
-157 152 0
-157 -156 0
-152 156 157 0
-158 -149 0
-158 157 0
149 -157 158 0
159 143 0
159 -4 0
-143 4 -159 0
66 159 -160 0
-66 -159 -160 0
66 -159 160 0
-66 159 160 0
161 153 0
161 160 0
-153 -160 -161 0
-137 161 -162 0
137 -161 -162 0
-137 -161 162 0
137 161 162 0
163 -162 0
163 -77 0
162 77 -163 0
164 158 0
164 -163 0
-158 163 -164 0
-165 -42 0
-165 -64 0
42 64 165 0
166 66 0
166 -26 0
-66 26 -166 0
167 165 0
167 166 0
-165 -166 -167 0
-164 -167 -168 0
164 167 -168 0
-164 167 168 0
164 -167 168 0
135 168 -169 0
-135 -168 -169 0
135 -168 169 0
-135 168 169 0
-170 -11 0
-170 2 0
11 -2 170 0
12 170 -171 0
-12 -170 -171 0
12 -170 171 0
-12 170 171 0
-172 171 0
-172 -145 0
-171 145 172 0
-172 96 -173 0
172 -96 -173 0
-172 -96 173 0
172 96 173 0
-174 -173 0
-174 -5 0
173 5 174 0
120 174 -175 0
-120 -174 -175 0
120 -174 175 0
-120 174 175 0
-176 4 0
-176 -69 0
-4 69 176 0
-177 175 0
-177 -176 0
-175 176 177 0
-178 169 0
-178 177 0
-169 -177 178 0
-179 17 0
-179 -10 0
-17 10 179 0
180 -179 0
180 -78 0
179 78 -180 0
-181 64 0
-181 24 0
-64 -24 181 0
45 -83 -182 0
-45 83 -182 0
45 83 182 0
-45 -83 182 0
145 -182 -183 0
-145 182 -183 0
145 182 183 0
-145 -182 183 0
184 -181 0
184 183 0
181 -183 -184 0
185 1 0
185 -6 0
-1 6 -185 0
185 44 -186 0
-185 -44 -186 0
185 -44 186 0
-185 44 186 0
-187 184 0
-187 186 0
-184 -186 187 0
-188 -180 0
-188 187 0
180 -187 188 0
-189 178 0
-189 188 0
-178 -188 189 0
-190 -59 0
-190 -76 0
59 76 190 0
191 120 0
191 -190 0
-120 190 -191 0
64 43 -192 0
-64 -43 -192 0
64 -43 192 0
-64 43 192 0
193 -191 0
193 192 0
191 -192 -193 0
195 -160 0
195 -194 0
160 194 -195 0
196 193 0
196 -195 0
-193 195 -196 0
197 -13 0
197 27 0
13 -27 -197 0
198 -197 0
198 18 0
197 -18 -198 0
-199 36 0
-199 -24 0
-36 24 199 0
4 73 -200 0
-4 -73 -200 0
4 -73 200 0
-4 73 200 0
201 -199 0
201 -200 0
199 200 -201 0
-202 -139 0
-202 -10 0
139 10 202 0
203 -202 0
203 41 0
202 -41 -203 0
204 -201 0
204 -203 0
201 203 -204 0
-205 -198 0
-205 -204 0
198 204 205 0
-206 -196 0
-206 205 0
196 -205 206 0
-207 46 0
-207 -17 0
-46 17 207 0
208 -121 0
208 207 0
121 -207 -208 0
-209 208 0
-209 122 0
-208 -122 209 0
210 8 0
210 -209 0
-8 209 -210 0
211 86 0
211 65 0
-86 -65 -211 0
212 -210 0
212 211 0
210 -211 -212 0
212 -10 -213 0
-212 10 -213 0
212 10 213 0
-212 -10 213 0
214 -6 0
214 66 0
6 -66 -214 0
-11 214 -215 0
11 -214 -215 0
-11 -214 215 0
11 214 215 0
216 -181 0
216 199 0
181 -199 -216 0
216 207 -217 0
-216 -207 -217 0
216 -207 217 0
-216 207 217 0
217 61 -218 0
-217 -61 -218 0
217 -61 218 0
-217 61 218 0
-219 218 0
-219 159 0
-218 -159 219 0
220 61 0
220 -219 0
-61 219 -220 0
221 215 0
221 220 0
-215 -220 -221 0
-213 221 -222 0
213 -221 -222 0
-213 -221 222 0
213 221 222 0
-223 -67 0
-223 -214 0
67 214 223 0
122 18 -224 0
-122 -18 -224 0
122 -18 224 0
-122 18 224 0
225 223 0
225 -224 0
-223 224 -225 0
-226 222 0
-226 -225 0
-222 225 226 0
227 206 0
227 226 0
-206 -226 -227 0
228 77 0
228 58 0
-77 -58 -228 0
-13 -228 -229 0
13 228 -229 0
-13 228 229 0
13 -228 229 0
-230 28 0
-230 -146 0
-28 146 230 0
-231 79 0
-231 -230 0
-79 230 231 0
-232 -229 0
-232 231 0
229 -231 232 0
-233 228 0
-233 56 0
-228 -56 233 0
-232 233 -234 0
232 -233 -234 0
-232 -233 234 0
232 233 234 0
-235 143 0
-235 -136 0
-143 136 235 0
236 -235 0
236 73 0
235 -73 -236 0
-237 234 0
-237 -236 0
-234 236 237 0
-238 -65 0
-238 93 0
65 -93 238 0
-239 -66 0
-239 -137 0
66 137 239 0
72 -190 -240 0
-72 190 -240 0
72 190 240 0
-72 -190 240 0
-241 -240 0
-241 74 0
240 -74 241 0
242 -239 0
242 241 0
239 -241 -242 0
-243 69 0
-243 43 0
-69 -43 243 0
242 -243 -244 0
-242 243 -244 0
242 243 244 0
-242 -243 244 0
245 238 0
245 244 0
-238 -244 -245 0
246 237 0
246 -245 0
-237 245 -246 0
247 -227 0
247 246 0
227 -246 -247 0
-248 -189 0
-248 247 0
189 -247 248 0
-130 -248 -249 0
130 248 -249 0
-130 248 249 0
130 -248 249 0
250 -36 0
250 1 0
36 -1 -250 0
-251 250 0
-251 228 0
-250 -228 251 0
251 13 -252 0
-251 -13 -252 0
251 -13 252 0
-251 13 252 0
253 -28 0
253 133 0
28 -133 -253 0
-254 64 0
-254 -6 0
-64 6 254 0
-253 254 -255 0
253 -254 -255 0
-253 -254 255 0
253 254 255 0
-66 -137 -256 0
66 137 -256 0
-66 137 256 0
66 -137 256 0
-257 179 0
-257 256 0
-179 -256 257 0
-258 257 0
-258 -10 0
-257 10 258 0
259 194 0
259 -16 0
-194 16 -259 0
-260 100 0
-260 259 0
-100 -259 260 0
261 258 0
261 260 0
-258 -260 -261 0
261 17 -262 0
-261 -17 -262 0
261 -17 262 0
-261 17 262 0
-263 -121 0
-263 262 0
121 -262 263 0
-264 255 0
-264 -263 0
-255 263 264 0
265 111 0
265 -153 0
-111 153 -265 0
-265 -133 -266 0
265 133 -266 0
-265 133 266 0
265 -133 266 0
-62 28 -267 0
62 -28 -267 0
-62 -28 267 0
62 28 267 0
268 266 0
268 267 0
-266 -267 -268 0
264 -268 -269 0
-264 268 -269 0
264 268 269 0
-264 -268 269 0
270 -252 0
270 -269 0
252 269 -270 0
271 -137 0
271 56 0
137 -56 -271 0
-272 271 0
-272 -258 0
-271 258 272 0
-273 -19 0
-273 272 0
19 -272 273 0
60 -19 -274 0
-60 19 -274 0
60 19 274 0
-60 -19 274 0
275 -7 0
275 -45 0
7 45 -275 0
-276 -275 0
-276 -111 0
275 111 276 0
-274 -276 -277 0
274 276 -277 0
-274 276 277 0
274 -276 277 0
273 277 -278 0
-273 -277 -278 0
273 -277 278 0
-273 277 278 0
279 -120 0
279 -69 0
120 69 -279 0
-51 -143 -280 0
51 143 -280 0
-51 143 280 0
51 -143 280 0
281 -42 0
281 -160 0
42 160 -281 0
282 136 0
282 -4 0
-136 4 -282 0
-7 282 -283 0
7 -282 -283 0
-7 -282 283 0
7 282 283 0
284 -281 0
284 283 0
281 -283 -284 0
-285 -280 0
-285 -284 0
280 284 285 0
-286 -279 0
-286 -285 0
279 285 286 0
287 2 0
287 -61 0
-2 61 -287 0
-288 287 0
-288 -240 0
-287 240 288 0
-289 288 0
-289 -116 0
-288 116 289 0
290 289 0
290 83 0
-289 -83 -290 0
-291 272 0
-291 79 0
-272 -79 291 0
292 99 0
292 -31 0
-99 31 -292 0
-32 -78 -293 0
32 78 -293 0
-32 78 293 0
32 -78 293 0
-294 200 0
-294 293 0
-200 -293 294 0
292 294 -295 0
-292 -294 -295 0
292 -294 295 0
-292 294 295 0
-296 291 0
-296 295 0
-291 -295 296 0
-297 -290 0
-297 -296 0
290 296 297 0
-298 -286 0
-298 297 0
286 -297 298 0
-278 -298 -299 0
278 298 -299 0
-278 298 299 0
278 -298 299 0
-300 270 0
-300 -299 0
-270 299 300 0
-18 83 -301 0
18 -83 -301 0
-18 -83 301 0
18 83 301 0
40 301 -302 0
-40 -301 -302 0
40 -301 302 0
-40 301 302 0
-303 199 0
-303 -3 0
-199 3 303 0
-302 303 -304 0
302 -303 -304 0
-302 -303 304 0
302 303 304 0
-305 50 0
-305 43 0
-50 -43 305 0
133 -142 -306 0
-133 142 -306 0
133 142 306 0
-133 -142 306 0
-95 -29 -307 0
95 29 -307 0
-95 29 307 0
95 -29 307 0
-308 -307 0
-308 -44 0
307 44 308 0
-309 122 0
-309 301 0
-122 -301 309 0
308 -309 -310 0
-308 309 -310 0
308 309 310 0
-308 -309 310 0
306 -310 -311 0
-306 310 -311 0
306 310 311 0
-306 -310 311 0
312 305 0
312 311 0
-305 -311 -312 0
100 -179 -313 0
-100 179 -313 0
100 179 313 0
-100 -179 313 0
314 312 0
314 313 0
-312 -313 -314 0
315 304 0
315 -314 0
-304 314 -315 0
93 68 -316 0
-93 -68 -316 0
93 -68 316 0
-93 68 316 0
317 85 0
317 316 0
-85 -316 -317 0
-317 -39 -318 0
317 39 -318 0
-317 39 318 0
317 -39 318 0
319 -6 0
319 -318 0
6 318 -319 0
-319 73 -320 0
319 -73 -320 0
-319 -73 320 0
319 73 320 0
321 140 0
321 1 0
-140 -1 -321 0
-322 -125 0
-322 -6 0
125 6 322 0
323 322 0
323 -46 0
-322 46 -323 0
324 72 0
324 -2 0
-72 2 -324 0
323 -324 -325 0
-323 324 -325 0
323 324 325 0
-323 -324 325 0
-326 256 0
-326 -109 0
-256 109 326 0
327 326 0
327 139 0
-326 -139 -327 0
-325 -327 -328 0
325 327 -328 0
-325 327 328 0
325 -327 328 0
-329 321 0
-329 -328 0
-321 328 329 0
22 329 -330 0
-22 -329 -330 0
22 -329 330 0
-22 329 330 0
331 287 0
331 96 0
-287 -96 -331 0
331 -74 -332 0
-331 74 -332 0
331 74 332 0
-331 -74 332 0
-333 76 0
-333 77 0
-76 -77 333 0
334 332 0
334 -333 0
-332 333 -334 0
335 330 0
335 334 0
-330 -334 -335 0
336 48 0
336 8 0
-48 -8 -336 0
-28 -144 -337 0
28 144 -337 0
-28 144 337 0
28 -144 337 0
337 -11 -338 0
-337 11 -338 0
337 11 338 0
-337 -11 338 0
338 -159 -339 0
-338 159 -339 0
338 159 339 0
-338 -159 339 0
49 338 -340 0
-49 -338 -340 0
49 -338 340 0
-49 338 340 0
-341 339 0
-341 -340 0
-339 340 341 0
-336 341 -342 0
336 -341 -342 0
-336 -341 342 0
336 341 342 0
-343 335 0
-343 -342 0
-335 342 343 0
-344 -320 0
-344 343 0
320 -343 344 0
-345 -315 0
-345 -344 0
315 344 345 0
-108 122 -346 0
108 -122 -346 0
-108 -122 346 0
108 122 346 0
347 -345 0
347 346 0
345 -346 -347 0
-348 -68 0
-348 -138 0
68 138 348 0
-216 38 -349 0
216 -38 -349 0
-216 -38 349 0
216 38 349 0
-350 -348 0
-350 -349 0
348 349 350 0
351 -194 0
351 140 0
194 -140 -351 0
352 -350 0
352 -351 0
350 351 -352 0
181 -250 -353 0
-181 250 -353 0
181 250 353 0
-181 -250 353 0
354 -7 0
354 -61 0
7 61 -354 0
353 -354 -355 0
-353 354 -355 0
353 354 355 0
-353 -354 355 0
356 -194 0
356 -194 0
194 -356 0
-357 355 0
-357 356 0
-355 -356 357 0
358 -3 0
358 79 0
3 -79 -358 0
99 -358 -359 0
-99 358 -359 0
99 358 359 0
-99 -358 359 0
-360 357 0
-360 359 0
-357 -359 360 0
-361 -40 0
-361 49 0
40 -49 361 0
363 316 0
363 362 0
-316 -362 -363 0
-361 363 -364 0
361 -363 -364 0
-361 -363 364 0
361 363 364 0
365 -360 0
365 -364 0
360 364 -365 0
352 365 -366 0
-352 -365 -366 0
352 -365 366 0
-352 365 366 0
367 341 0
367 -257 0
-341 257 -367 0
-368 -24 0
-368 36 0
24 -36 368 0
-368 151 -369 0
368 -151 -369 0
-368 -151 369 0
368 151 369 0
-331 -369 -370 0
331 369 -370 0
-331 369 370 0
331 -369 370 0
371 367 0
371 370 0
-367 -370 -371 0
-372 366 0
-372 371 0
-366 -371 372 0
-373 140 0
-373 170 0
-140 -170 373 0
-374 -3 0
-374 45 0
3 -45 374 0
-374 190 -375 0
374 -190 -375 0
-374 -190 375 0
374 190 375 0
373 -375 -376 0
-373 375 -376 0
373 375 376 0
-373 -375 376 0
241 -124 -377 0
-241 124 -377 0
241 124 377 0
-241 -124 377 0
376 377 -378 0
-376 -377 -378 0
376 -377 378 0
-376 377 378 0
372 -378 -379 0
-372 378 -379 0
372 378 379 0
-372 -378 379 0
-30 -95 -380 0
30 95 -380 0
-30 95 380 0
30 -95 380 0
-62 -194 -381 0
62 194 -381 0
-62 194 381 0
62 -194 381 0
382 381 0
382 45 0
-381 -45 -382 0
-382 -293 -383 0
382 293 -383 0
-382 293 383 0
382 -293 383 0
-384 380 0
-384 -383 0
-380 383 384 0
-102 -124 -385 0
102 124 -385 0
-102 124 385 0
102 -124 385 0
385 39 -386 0
-385 -39 -386 0
385 -39 386 0
-385 39 386 0
384 -386 -387 0
-384 386 -387 0
384 386 387 0
-384 -386 387 0
388 -379 0
388 387 0
379 -387 -388 0
347 388 -389 0
-347 -388 -389 0
347 -388 389 0
-347 388 389 0
-390 -300 0
-390 389 0
300 -389 390 0
391 108 0
391 79 0
-108 -79 -391 0
-392 71 0
-392 309 0
-71 -309 392 0
393 -199 0
393 392 0
199 -392 -393 0
-394 391 0
-394 393 0
-391 -393 394 0
-395 -33 0
-395 301 0
33 -301 395 0
-396 -394 0
-396 -395 0
394 395 396 0
397 -102 0
397 287 0
102 -287 -397 0
-397 -22 -398 0
397 22 -398 0
-397 22 398 0
397 -22 398 0
399 42 0
399 -77 0
-42 77 -399 0
400 398 0
400 399 0
-398 -399 -400 0
-136 32 -401 0
136 -32 -401 0
-136 -32 401 0
136 32 401 0
-402 -28 0
-402 49 0
28 -49 402 0
-403 -30 0
-403 96 0
30 -96 403 0
404 403 0
404 -160 0
-403 160 -404 0
-405 402 0
-405 404 0
-402 -404 405 0
-406 401 0
-406 -405 0
-401 405 406 0
407 -400 0
407 -406 0
400 406 -407 0
408 -374 0
408 240 0
374 -240 -408 0
407 408 -409 0
-407 -408 -409 0
407 -408 409 0
-407 408 409 0
410 -396 0
410 -409 0
396 409 -410 0
51 -162 -411 0
-51 162 -411 0
51 162 411 0
-51 -162 411 0
412 403 0
412 -182 0
-403 182 -412 0
-413 -411 0
-413 412 0
411 -412 413 0
414 65 0
414 -403 0
-65 403 -414 0
-46 209 -415 0
46 -209 -415 0
-46 -209 415 0
46 209 415 0
-416 415 0
-416 235 0
-415 -235 416 0
-68 -416 -417 0
68 416 -417 0
-68 416 417 0
68 -416 417 0
418 -131 0
418 -123 0
131 123 -418 0
-419 417 0
-419 418 0
-417 -418 419 0
420 414 0
420 -419 0
-414 419 -420 0
421 413 0
421 420 0
-413 -420 -421 0
422 29 0
422 -77 0
-29 77 -422 0
-323 71 -423 0
323 -71 -423 0
-323 -71 423 0
323 71 423 0
-424 -422 0
-424 -423 0
422 423 424 0
425 -116 0
425 -403 0
116 403 -425 0
-208 7 -426 0
208 -7 -426 0
-208 -7 426 0
208 7 426 0
-427 -425 0
-427 426 0
425 -426 427 0
428 -424 0
428 -427 0
424 427 -428 0
429 257 0
429 309 0
-257 -309 -429 0
99 -275 -430 0
-99 275 -430 0
99 275 430 0
-99 -275 430 0
-429 -430 -431 0
429 430 -431 0
-429 430 431 0
429 -430 431 0
-432 428 0
-432 431 0
-428 -431 432 0
-421 -432 -433 0
421 432 -433 0
-421 432 433 0
421 -432 433 0
-434 410 0
-434 -433 0
-410 433 434 0
-435 390 0
-435 434 0
-390 -434 435 0
-249 435 -436 0
249 -435 -436 0
-249 -435 436 0
249 435 436 0
202 -29 178 -106 104 0
-137 435 16 378 273 -375 0
191 286 -401 -327 -27 -368 0
-399 24 433 339 157 202 0
432 -71 269 -98 0
404 -273 189 -145 0
-297 -389 0
378 -424 269 327 -179 -133 0
151 -119 288 -421 -123 279 0
-123 135 -263 -273 222 -193 0
-210 -52 -234 -373 -90 357 0
-436 5 255 -323 -166 214 0
436 33 -24 0
436 0
